# Solution for model micodag
# Objective value = 2.8532679121087629e+01
s_0_1 0
s_1_0 0
s_0_2 0
s_2_0 0.379404132641195
s_1_2 0
s_2_1 2.8436562335624238e-01
s_1_3 0
s_3_1 1.4566970882163055e-01
s_1_7 0
s_7_1 0
s_1_9 0
s_9_1 0
s_1_12 0
s_12_1 6.8090916790438172e-01
s_1_13 0
s_13_1 3.0369926106014322e-01
s_1_22 0
s_22_1 6.5833232976441636e-01
s_2_3 0
s_3_2 3.5384349199987053e-01
s_2_4 0
s_4_2 4.6710994805006667e-01
s_2_6 0
s_6_2 4.9520876789566248e-01
s_2_8 0
s_8_2 4.5141262048649544e-02
s_2_15 0
s_15_2 0
s_2_17 0
s_17_2 1.3276610059598832e+00
s_2_18 0
s_18_2 7.5285739141641184e-01
s_2_21 0
s_21_2 3.9371145661963425e-01
s_3_4 0
s_4_3 0.516978453689414
s_3_6 0
s_6_3 5.7529543883124568e-01
s_3_7 0
s_7_3 0
s_3_8 0
s_8_3 0
s_3_9 0
s_9_3 6.7602726474575281e-01
s_3_12 0
s_12_3 0
s_3_13 0
s_13_3 4.3790212315032839e-01
s_3_15 0
s_15_3 0
s_3_17 0
s_17_3 1.1620389481132873e+00
s_3_18 0
s_18_3 7.0971035443037156e-01
s_3_26 0
s_26_3 7.4969754884831108e-01
s_4_5 0
s_5_4 0
s_4_6 0.47491847046087
s_6_4 0
s_4_7 0
s_7_4 0
s_4_8 0
s_8_4 0
s_4_10 0
s_10_4 0
s_4_11 0
s_11_4 4.0659885317640132e-01
s_4_14 0
s_14_4 0
s_4_15 0
s_15_4 0
s_4_16 0
s_16_4 2.1266994190719579e-01
s_4_23 0
s_23_4 0
s_4_24 0
s_24_4 0.466042569711556
s_5_6 0
s_6_5 2.3303642980367023e-01
s_5_7 0
s_7_5 5.5974911218581180e-01
s_5_14 0
s_14_5 6.1554462768194718e-01
s_6_7 0
s_7_6 0
s_6_8 5.4857998319026251e+00
s_8_6 0
s_6_19 0
s_19_6 0
s_6_20 0
s_20_6 4.2642374285940843e-01
s_6_22 0
s_22_6 0
s_6_23 0
s_23_6 1.2606930899522677e+00
s_7_8 0
s_8_7 0
s_7_9 0
s_9_7 5.4857998319026251e+00
s_7_10 0
s_10_7 5.4857998319026251e+00
s_7_11 0
s_11_7 5.4857998319026251e+00
s_7_19 0
s_19_7 0
s_7_20 0
s_20_7 5.4857998319026251e+00
s_7_22 0
s_22_7 5.4857998319026251e+00
s_7_25 0
s_25_7 5.4857998319026251e+00
s_8_10 0
s_10_8 0
s_8_11 0
s_11_8 5.4857998319026251e+00
s_8_14 0
s_14_8 0
s_8_15 0
s_15_8 0
s_8_16 0
s_16_8 5.4857998319026251e+00
s_8_23 0
s_23_8 0
s_8_24 0
s_24_8 5.4857998319026251e+00
s_9_12 0
s_12_9 6.8236730305580018e-01
s_10_14 0
s_14_10 0
s_10_15 0
s_15_10 0
s_10_16 0
s_16_10 5.0023566324781132e-01
s_12_13 0
s_13_12 3.1450776389017587e-01
s_12_26 0
s_26_12 1.30033741646304
s_14_15 0
s_15_14 3.4387138391956462e-01
s_14_16 0
s_16_14 3.1304986711929228e-01
s_14_19 0
s_19_14 3.9294066816635631e-01
s_15_16 0
s_16_15 2.2699304568398748e-01
s_15_17 0
s_17_15 6.4375894689002244e-01
s_15_18 0
s_18_15 1.3375174473152818e+00
s_19_20 0
s_20_19 6.5812486425470951e-01
s_22_23 0
s_23_22 1.1926703970781114e+00
s_23_24 0
s_24_23 4.5217499519813664e-01
s_0_0 1.0379858305182479e+00
s_1_1 1.0544063795048562e+00
s_2_2 6.6284274334346716e-01
s_3_3 6.3846241395450587e-01
s_4_4 1.6621330324257828e+00
s_5_5 1.9832257941214797e+00
s_6_6 1.6604997228390808e+00
s_7_7 5.4857998319026251e+00
s_8_8 5.4857998319026251e+00
s_9_9 9.9803808860461718e-01
s_10_10 2.0921329115051015e+00
s_11_11 1.1115784152221835e+00
s_12_12 1.9148582648994932e+00
s_13_13 0.940796081326992
s_14_14 1.0630102663072503e+00
s_15_15 9.8511425413830356e-01
s_16_16 6.6816208703758573e-01
s_17_17 1.9402663649844358e+00
s_18_18 1.9237819576595023e+00
s_19_19 6.1803191236663579e-01
s_20_20 1.0715021443818262e+00
s_21_21 0.610918232208582
s_22_22 1.0030116056024845e+00
s_23_23 1.9013460438828655e+00
s_24_24 7.2311088480753138e-01
s_25_25 1.0383401464472426e+00
s_26_26 1.9993723775117989e+00
Gamma_0_0 1.0188158962826643e+00
Gamma_0_1 0
Gamma_0_2 0
Gamma_0_3 0
Gamma_0_4 0
Gamma_0_5 0
Gamma_0_6 0
Gamma_0_7 0
Gamma_0_8 0
Gamma_0_9 0
Gamma_0_10 0
Gamma_0_11 0
Gamma_0_12 0
Gamma_0_13 0
Gamma_0_14 0
Gamma_0_15 0
Gamma_0_16 0
Gamma_0_17 0
Gamma_0_18 0
Gamma_0_19 0
Gamma_0_20 0
Gamma_0_21 0
Gamma_0_22 0
Gamma_0_23 0
Gamma_0_24 0
Gamma_0_25 0
Gamma_0_26 0
Gamma_1_0 0
Gamma_1_1 1.0268429186126071e+00
Gamma_1_2 0
Gamma_1_3 0
Gamma_1_4 0
Gamma_1_5 0
Gamma_1_6 0
Gamma_1_7 0
Gamma_1_8 0
Gamma_1_9 0
Gamma_1_10 0
Gamma_1_11 0
Gamma_1_12 0
Gamma_1_13 0
Gamma_1_14 0
Gamma_1_15 0
Gamma_1_16 0
Gamma_1_17 0
Gamma_1_18 0
Gamma_1_19 0
Gamma_1_20 0
Gamma_1_21 0
Gamma_1_22 0
Gamma_1_23 0
Gamma_1_24 0
Gamma_1_25 0
Gamma_1_26 0
Gamma_2_0 -6.1595789843234872e-01
Gamma_2_1 5.3325943344327531e-01
Gamma_2_2 8.1415154814289192e-01
Gamma_2_3 0
Gamma_2_4 0
Gamma_2_5 0
Gamma_2_6 0
Gamma_2_7 0
Gamma_2_8 0
Gamma_2_9 0
Gamma_2_10 0
Gamma_2_11 0
Gamma_2_12 0
Gamma_2_13 0
Gamma_2_14 0
Gamma_2_15 0
Gamma_2_16 0
Gamma_2_17 0
Gamma_2_18 0
Gamma_2_19 0
Gamma_2_20 0
Gamma_2_21 0
Gamma_2_22 0
Gamma_2_23 0
Gamma_2_24 0
Gamma_2_25 0
Gamma_2_26 0
Gamma_3_0 0
Gamma_3_1 -3.8166701301216988e-01
Gamma_3_2 -5.9484745271361072e-01
Gamma_3_3 7.9903843083703241e-01
Gamma_3_4 0
Gamma_3_5 0
Gamma_3_6 0
Gamma_3_7 0
Gamma_3_8 0
Gamma_3_9 0
Gamma_3_10 0
Gamma_3_11 0
Gamma_3_12 0
Gamma_3_13 0
Gamma_3_14 0
Gamma_3_15 0
Gamma_3_16 0
Gamma_3_17 0
Gamma_3_18 0
Gamma_3_19 0
Gamma_3_20 0
Gamma_3_21 0
Gamma_3_22 0
Gamma_3_23 0
Gamma_3_24 0
Gamma_3_25 0
Gamma_3_26 0
Gamma_4_0 0
Gamma_4_1 0
Gamma_4_2 -6.8345442280379409e-01
Gamma_4_3 -7.1901213737280889e-01
Gamma_4_4 1.2892373840475553e+00
Gamma_4_5 0
Gamma_4_6 6.8914328732192554e-01
Gamma_4_7 0
Gamma_4_8 0
Gamma_4_9 0
Gamma_4_10 0
Gamma_4_11 0
Gamma_4_12 0
Gamma_4_13 0
Gamma_4_14 0
Gamma_4_15 0
Gamma_4_16 0
Gamma_4_17 0
Gamma_4_18 0
Gamma_4_19 0
Gamma_4_20 0
Gamma_4_21 0
Gamma_4_22 0
Gamma_4_23 0
Gamma_4_24 0
Gamma_4_25 0
Gamma_4_26 0
Gamma_5_0 0
Gamma_5_1 0
Gamma_5_2 0
Gamma_5_3 0
Gamma_5_4 0
Gamma_5_5 1.4082704974973665e+00
Gamma_5_6 0
Gamma_5_7 0
Gamma_5_8 0
Gamma_5_9 0
Gamma_5_10 0
Gamma_5_11 0
Gamma_5_12 0
Gamma_5_13 0
Gamma_5_14 0
Gamma_5_15 0
Gamma_5_16 0
Gamma_5_17 0
Gamma_5_18 0
Gamma_5_19 0
Gamma_5_20 0
Gamma_5_21 0
Gamma_5_22 0
Gamma_5_23 0
Gamma_5_24 0
Gamma_5_25 0
Gamma_5_26 0
Gamma_6_0 0
Gamma_6_1 0
Gamma_6_2 7.0371071321649170e-01
Gamma_6_3 7.5848232598475640e-01
Gamma_6_4 0
Gamma_6_5 4.8273846936376519e-01
Gamma_6_6 1.2886037881517660e+00
Gamma_6_7 0
Gamma_6_8 -4.2943709660319712e-01
Gamma_6_9 0
Gamma_6_10 0
Gamma_6_11 0
Gamma_6_12 0
Gamma_6_13 0
Gamma_6_14 0
Gamma_6_15 0
Gamma_6_16 0
Gamma_6_17 0
Gamma_6_18 0
Gamma_6_19 0
Gamma_6_20 0
Gamma_6_21 0
Gamma_6_22 0
Gamma_6_23 0
Gamma_6_24 0
Gamma_6_25 0
Gamma_6_26 0
Gamma_7_0 0
Gamma_7_1 0
Gamma_7_2 0
Gamma_7_3 0
Gamma_7_4 0
Gamma_7_5 7.4816382710327090e-01
Gamma_7_6 0
Gamma_7_7 1.0182410988265636e+00
Gamma_7_8 0
Gamma_7_9 0
Gamma_7_10 0
Gamma_7_11 0
Gamma_7_12 0
Gamma_7_13 0
Gamma_7_14 0
Gamma_7_15 0
Gamma_7_16 0
Gamma_7_17 0
Gamma_7_18 0
Gamma_7_19 0
Gamma_7_20 0
Gamma_7_21 0
Gamma_7_22 0
Gamma_7_23 0
Gamma_7_24 0
Gamma_7_25 0
Gamma_7_26 0
Gamma_8_0 0
Gamma_8_1 0
Gamma_8_2 -2.1246473130533991e-01
Gamma_8_3 0
Gamma_8_4 0
Gamma_8_5 0
Gamma_8_6 0
Gamma_8_7 0
Gamma_8_8 6.2330685766189931e-01
Gamma_8_9 0
Gamma_8_10 0
Gamma_8_11 0
Gamma_8_12 0
Gamma_8_13 0
Gamma_8_14 0
Gamma_8_15 0
Gamma_8_16 0
Gamma_8_17 0
Gamma_8_18 0
Gamma_8_19 0
Gamma_8_20 0
Gamma_8_21 0
Gamma_8_22 0
Gamma_8_23 0
Gamma_8_24 0
Gamma_8_25 0
Gamma_8_26 0
Gamma_9_0 0
Gamma_9_1 0
Gamma_9_2 0
Gamma_9_3 -0.822208771995138
Gamma_9_4 0
Gamma_9_5 0
Gamma_9_6 0
Gamma_9_7 -5.6929380421087949e-01
Gamma_9_8 0
Gamma_9_9 9.9901856269271483e-01
Gamma_9_10 0
Gamma_9_11 0
Gamma_9_12 0
Gamma_9_13 0
Gamma_9_14 0
Gamma_9_15 0
Gamma_9_16 0
Gamma_9_17 0
Gamma_9_18 0
Gamma_9_19 0
Gamma_9_20 0
Gamma_9_21 0
Gamma_9_22 0
Gamma_9_23 0
Gamma_9_24 0
Gamma_9_25 0
Gamma_9_26 0
Gamma_10_0 0
Gamma_10_1 0
Gamma_10_2 0
Gamma_10_3 0
Gamma_10_4 0
Gamma_10_5 0
Gamma_10_6 0
Gamma_10_7 1.1379703263747811e+00
Gamma_10_8 0
Gamma_10_9 0
Gamma_10_10 1.4464207242379727e+00
Gamma_10_11 0
Gamma_10_12 0
Gamma_10_13 0
Gamma_10_14 0
Gamma_10_15 0
Gamma_10_16 0
Gamma_10_17 0
Gamma_10_18 0
Gamma_10_19 0
Gamma_10_20 0
Gamma_10_21 0
Gamma_10_22 0
Gamma_10_23 0
Gamma_10_24 0
Gamma_10_25 0
Gamma_10_26 0
Gamma_11_0 0
Gamma_11_1 0
Gamma_11_2 0
Gamma_11_3 0
Gamma_11_4 6.3765104342140178e-01
Gamma_11_5 0
Gamma_11_6 0
Gamma_11_7 -6.8181886691056315e-01
Gamma_11_8 -8.5007798803460222e-01
Gamma_11_9 0
Gamma_11_10 0
Gamma_11_11 1.0543141918907213e+00
Gamma_11_12 0
Gamma_11_13 0
Gamma_11_14 0
Gamma_11_15 0
Gamma_11_16 0
Gamma_11_17 0
Gamma_11_18 0
Gamma_11_19 0
Gamma_11_20 0
Gamma_11_21 0
Gamma_11_22 0
Gamma_11_23 0
Gamma_11_24 0
Gamma_11_25 0
Gamma_11_26 0
Gamma_12_0 0
Gamma_12_1 8.2517220499989108e-01
Gamma_12_2 0
Gamma_12_3 0
Gamma_12_4 0
Gamma_12_5 0
Gamma_12_6 0
Gamma_12_7 0
Gamma_12_8 0
Gamma_12_9 -8.2605526634469273e-01
Gamma_12_10 0
Gamma_12_11 0
Gamma_12_12 1.3837840383887556e+00
Gamma_12_13 0
Gamma_12_14 0
Gamma_12_15 0
Gamma_12_16 0
Gamma_12_17 0
Gamma_12_18 0
Gamma_12_19 0
Gamma_12_20 0
Gamma_12_21 0
Gamma_12_22 0
Gamma_12_23 0
Gamma_12_24 0
Gamma_12_25 0
Gamma_12_26 0
Gamma_13_0 0
Gamma_13_1 -0.551089158902753
Gamma_13_2 0
Gamma_13_3 6.6174173447828488e-01
Gamma_13_4 0
Gamma_13_5 0
Gamma_13_6 0
Gamma_13_7 0
Gamma_13_8 0
Gamma_13_9 0
Gamma_13_10 0
Gamma_13_11 0
Gamma_13_12 5.6080991778870737e-01
Gamma_13_13 9.6994643219457877e-01
Gamma_13_14 0
Gamma_13_15 0
Gamma_13_16 0
Gamma_13_17 0
Gamma_13_18 0
Gamma_13_19 0
Gamma_13_20 0
Gamma_13_21 0
Gamma_13_22 0
Gamma_13_23 0
Gamma_13_24 0
Gamma_13_25 0
Gamma_13_26 0
Gamma_14_0 0
Gamma_14_1 0
Gamma_14_2 0
Gamma_14_3 0
Gamma_14_4 0
Gamma_14_5 7.8456652215216793e-01
Gamma_14_6 0
Gamma_14_7 0
Gamma_14_8 0
Gamma_14_9 0
Gamma_14_10 0
Gamma_14_11 0
Gamma_14_12 0
Gamma_14_13 0
Gamma_14_14 1.0310238922097055e+00
Gamma_14_15 0
Gamma_14_16 0
Gamma_14_17 0
Gamma_14_18 0
Gamma_14_19 0
Gamma_14_20 0
Gamma_14_21 0
Gamma_14_22 0
Gamma_14_23 0
Gamma_14_24 0
Gamma_14_25 0
Gamma_14_26 0
Gamma_15_0 0
Gamma_15_1 0
Gamma_15_2 0
Gamma_15_3 0
Gamma_15_4 0
Gamma_15_5 0
Gamma_15_6 0
Gamma_15_7 0
Gamma_15_8 0
Gamma_15_9 0
Gamma_15_10 0
Gamma_15_11 0
Gamma_15_12 0
Gamma_15_13 0
Gamma_15_14 -5.8640547739560311e-01
Gamma_15_15 9.9252922079821082e-01
Gamma_15_16 0
Gamma_15_17 0
Gamma_15_18 0
Gamma_15_19 0
Gamma_15_20 0
Gamma_15_21 0
Gamma_15_22 0
Gamma_15_23 0
Gamma_15_24 0
Gamma_15_25 0
Gamma_15_26 0
Gamma_16_0 0
Gamma_16_1 0
Gamma_16_2 0
Gamma_16_3 0
Gamma_16_4 -4.6116151390504939e-01
Gamma_16_5 0
Gamma_16_6 0
Gamma_16_7 0
Gamma_16_8 -6.8639283216277192e-01
Gamma_16_9 0
Gamma_16_10 7.0727340063642441e-01
Gamma_16_11 0
Gamma_16_12 0
Gamma_16_13 0
Gamma_16_14 -5.5950859432120748e-01
Gamma_16_15 -4.7643787179860919e-01
Gamma_16_16 8.1741182217875119e-01
Gamma_16_17 0
Gamma_16_18 0
Gamma_16_19 0
Gamma_16_20 0
Gamma_16_21 0
Gamma_16_22 0
Gamma_16_23 0
Gamma_16_24 0
Gamma_16_25 0
Gamma_16_26 0
Gamma_17_0 0
Gamma_17_1 0
Gamma_17_2 -1.1522417306971158e+00
Gamma_17_3 -1.0779791037461202e+00
Gamma_17_4 0
Gamma_17_5 0
Gamma_17_6 0
Gamma_17_7 0
Gamma_17_8 0
Gamma_17_9 0
Gamma_17_10 0
Gamma_17_11 0
Gamma_17_12 0
Gamma_17_13 0
Gamma_17_14 0
Gamma_17_15 -8.0234590227035085e-01
Gamma_17_16 0
Gamma_17_17 1.3929344438933355e+00
Gamma_17_18 0
Gamma_17_19 0
Gamma_17_20 0
Gamma_17_21 0
Gamma_17_22 0
Gamma_17_23 0
Gamma_17_24 0
Gamma_17_25 0
Gamma_17_26 0
Gamma_18_0 0
Gamma_18_1 0
Gamma_18_2 -8.6767355117948186e-01
Gamma_18_3 0.842443086760389
Gamma_18_4 0
Gamma_18_5 0
Gamma_18_6 0
Gamma_18_7 0
Gamma_18_8 0
Gamma_18_9 0
Gamma_18_10 0
Gamma_18_11 0
Gamma_18_12 0
Gamma_18_13 0
Gamma_18_14 0
Gamma_18_15 -1.1565108937296189e+00
Gamma_18_16 0
Gamma_18_17 0
Gamma_18_18 1.3870046711022650e+00
Gamma_18_19 0
Gamma_18_20 0
Gamma_18_21 0
Gamma_18_22 0
Gamma_18_23 0
Gamma_18_24 0
Gamma_18_25 0
Gamma_18_26 0
Gamma_19_0 0
Gamma_19_1 0
Gamma_19_2 0
Gamma_19_3 0
Gamma_19_4 0
Gamma_19_5 0
Gamma_19_6 0
Gamma_19_7 0
Gamma_19_8 0
Gamma_19_9 0
Gamma_19_10 0
Gamma_19_11 0
Gamma_19_12 0
Gamma_19_13 0
Gamma_19_14 6.2684979713353728e-01
Gamma_19_15 0
Gamma_19_16 0
Gamma_19_17 0
Gamma_19_18 0
Gamma_19_19 7.8615005715616215e-01
Gamma_19_20 0
Gamma_19_21 0
Gamma_19_22 0
Gamma_19_23 0
Gamma_19_24 0
Gamma_19_25 0
Gamma_19_26 0
Gamma_20_0 0
Gamma_20_1 0
Gamma_20_2 0
Gamma_20_3 0
Gamma_20_4 0
Gamma_20_5 0
Gamma_20_6 -6.5301128846246526e-01
Gamma_20_7 8.2135130397646006e-01
Gamma_20_8 0
Gamma_20_9 0
Gamma_20_10 0
Gamma_20_11 0
Gamma_20_12 0
Gamma_20_13 0
Gamma_20_14 0
Gamma_20_15 0
Gamma_20_16 0
Gamma_20_17 0
Gamma_20_18 0
Gamma_20_19 8.1124895331501690e-01
Gamma_20_20 1.0351338775162497e+00
Gamma_20_21 0
Gamma_20_22 0
Gamma_20_23 0
Gamma_20_24 0
Gamma_20_25 0
Gamma_20_26 0
Gamma_21_0 0
Gamma_21_1 0
Gamma_21_2 6.2746430704832523e-01
Gamma_21_3 0
Gamma_21_4 0
Gamma_21_5 0
Gamma_21_6 0
Gamma_21_7 0
Gamma_21_8 0
Gamma_21_9 0
Gamma_21_10 0
Gamma_21_11 0
Gamma_21_12 0
Gamma_21_13 0
Gamma_21_14 0
Gamma_21_15 0
Gamma_21_16 0
Gamma_21_17 0
Gamma_21_18 0
Gamma_21_19 0
Gamma_21_20 0
Gamma_21_21 7.8161258447429216e-01
Gamma_21_22 0
Gamma_21_23 0
Gamma_21_24 0
Gamma_21_25 0
Gamma_21_26 0
Gamma_22_0 0
Gamma_22_1 -8.1137681120698557e-01
Gamma_22_2 0
Gamma_22_3 0
Gamma_22_4 0
Gamma_22_5 0
Gamma_22_6 0
Gamma_22_7 -6.2549166677002110e-01
Gamma_22_8 0
Gamma_22_9 0
Gamma_22_10 0
Gamma_22_11 0
Gamma_22_12 0
Gamma_22_13 0
Gamma_22_14 0
Gamma_22_15 0
Gamma_22_16 0
Gamma_22_17 0
Gamma_22_18 0
Gamma_22_19 0
Gamma_22_20 0
Gamma_22_21 0
Gamma_22_22 1.0015046707841584e+00
Gamma_22_23 0
Gamma_22_24 0
Gamma_22_25 0
Gamma_22_26 0
Gamma_23_0 0
Gamma_23_1 0
Gamma_23_2 0
Gamma_23_3 0
Gamma_23_4 0
Gamma_23_5 0
Gamma_23_6 1.1228059003907436e+00
Gamma_23_7 0
Gamma_23_8 0
Gamma_23_9 0
Gamma_23_10 0
Gamma_23_11 0
Gamma_23_12 0
Gamma_23_13 0
Gamma_23_14 0
Gamma_23_15 0
Gamma_23_16 0
Gamma_23_17 0
Gamma_23_18 0
Gamma_23_19 0
Gamma_23_20 0
Gamma_23_21 0
Gamma_23_22 1.0920945000676965e+00
Gamma_23_23 1.3788930501974641e+00
Gamma_23_24 0
Gamma_23_25 0
Gamma_23_26 0
Gamma_24_0 0
Gamma_24_1 0
Gamma_24_2 0
Gamma_24_3 0
Gamma_24_4 -6.8267310604091969e-01
Gamma_24_5 0
Gamma_24_6 0
Gamma_24_7 0
Gamma_24_8 6.8026619299407387e-01
Gamma_24_9 0
Gamma_24_10 0
Gamma_24_11 0
Gamma_24_12 0
Gamma_24_13 0
Gamma_24_14 0
Gamma_24_15 0
Gamma_24_16 0
Gamma_24_17 0
Gamma_24_18 0
Gamma_24_19 0
Gamma_24_20 0
Gamma_24_21 0
Gamma_24_22 0
Gamma_24_23 6.7243958479415666e-01
Gamma_24_24 8.5035926807881146e-01
Gamma_24_25 0
Gamma_24_26 0
Gamma_25_0 0
Gamma_25_1 0
Gamma_25_2 0
Gamma_25_3 0
Gamma_25_4 0
Gamma_25_5 0
Gamma_25_6 0
Gamma_25_7 -5.5844083369190278e-01
Gamma_25_8 0
Gamma_25_9 0
Gamma_25_10 0
Gamma_25_11 0
Gamma_25_12 0
Gamma_25_13 0
Gamma_25_14 0
Gamma_25_15 0
Gamma_25_16 0
Gamma_25_17 0
Gamma_25_18 0
Gamma_25_19 0
Gamma_25_20 0
Gamma_25_21 0
Gamma_25_22 0
Gamma_25_23 0
Gamma_25_24 0
Gamma_25_25 1.0189897675871153e+00
Gamma_25_26 0
Gamma_26_0 0
Gamma_26_1 0
Gamma_26_2 0
Gamma_26_3 0.865850765922345
Gamma_26_4 0
Gamma_26_5 0
Gamma_26_6 0
Gamma_26_7 0
Gamma_26_8 0
Gamma_26_9 0
Gamma_26_10 0
Gamma_26_11 0
Gamma_26_12 1.1403233824065178e+00
Gamma_26_13 0
Gamma_26_14 0
Gamma_26_15 0
Gamma_26_16 0
Gamma_26_17 0
Gamma_26_18 0
Gamma_26_19 0
Gamma_26_20 0
Gamma_26_21 0
Gamma_26_22 0
Gamma_26_23 0
Gamma_26_24 0
Gamma_26_25 0
Gamma_26_26 1.4139916469031208e+00
psi_0 5
psi_1 5
psi_2 4
psi_3 3
psi_4 1
psi_5 4
psi_6 2
psi_7 3
psi_8 3
psi_9 2
psi_10 1
psi_11 0
psi_12 1
psi_13 0
psi_14 2
psi_15 1
psi_16 0
psi_17 0
psi_18 0
psi_19 1
psi_20 0
psi_21 0
psi_22 2
psi_23 1
psi_24 0
psi_25 0
psi_26 0
g_0_0 0
g_0_1 0
g_0_2 0
g_0_3 0
g_0_4 0
g_0_5 0
g_0_6 0
g_0_7 0
g_0_8 0
g_0_9 0
g_0_10 0
g_0_11 0
g_0_12 0
g_0_13 0
g_0_14 0
g_0_15 0
g_0_16 0
g_0_17 0
g_0_18 0
g_0_19 0
g_0_20 0
g_0_21 0
g_0_22 0
g_0_23 0
g_0_24 0
g_0_25 0
g_0_26 0
g_1_0 0
g_1_1 0
g_1_2 0
g_1_3 0
g_1_4 0
g_1_5 0
g_1_6 0
g_1_7 0
g_1_8 0
g_1_9 0
g_1_10 0
g_1_11 0
g_1_12 0
g_1_13 0
g_1_14 0
g_1_15 0
g_1_16 0
g_1_17 0
g_1_18 0
g_1_19 0
g_1_20 0
g_1_21 0
g_1_22 0
g_1_23 0
g_1_24 0
g_1_25 0
g_1_26 0
g_2_0 1
g_2_1 1
g_2_2 0
g_2_3 0
g_2_4 0
g_2_5 0
g_2_6 0
g_2_7 0
g_2_8 0
g_2_9 0
g_2_10 0
g_2_11 0
g_2_12 0
g_2_13 0
g_2_14 0
g_2_15 0
g_2_16 0
g_2_17 0
g_2_18 0
g_2_19 0
g_2_20 0
g_2_21 0
g_2_22 0
g_2_23 0
g_2_24 0
g_2_25 0
g_2_26 0
g_3_0 0
g_3_1 1
g_3_2 1
g_3_3 0
g_3_4 0
g_3_5 0
g_3_6 0
g_3_7 0
g_3_8 0
g_3_9 0
g_3_10 0
g_3_11 0
g_3_12 0
g_3_13 0
g_3_14 0
g_3_15 0
g_3_16 0
g_3_17 0
g_3_18 0
g_3_19 0
g_3_20 0
g_3_21 0
g_3_22 0
g_3_23 0
g_3_24 0
g_3_25 0
g_3_26 0
g_4_0 0
g_4_1 0
g_4_2 1
g_4_3 1
g_4_4 0
g_4_5 0
g_4_6 1
g_4_7 0
g_4_8 0
g_4_9 0
g_4_10 0
g_4_11 0
g_4_12 0
g_4_13 0
g_4_14 0
g_4_15 0
g_4_16 0
g_4_17 0
g_4_18 0
g_4_19 0
g_4_20 0
g_4_21 0
g_4_22 0
g_4_23 0
g_4_24 0
g_4_25 0
g_4_26 0
g_5_0 0
g_5_1 0
g_5_2 0
g_5_3 0
g_5_4 0
g_5_5 0
g_5_6 0
g_5_7 0
g_5_8 0
g_5_9 0
g_5_10 0
g_5_11 0
g_5_12 0
g_5_13 0
g_5_14 0
g_5_15 0
g_5_16 0
g_5_17 0
g_5_18 0
g_5_19 0
g_5_20 0
g_5_21 0
g_5_22 0
g_5_23 0
g_5_24 0
g_5_25 0
g_5_26 0
g_6_0 0
g_6_1 0
g_6_2 1
g_6_3 1
g_6_4 0
g_6_5 1
g_6_6 0
g_6_7 0
g_6_8 1
g_6_9 0
g_6_10 0
g_6_11 0
g_6_12 0
g_6_13 0
g_6_14 0
g_6_15 0
g_6_16 0
g_6_17 0
g_6_18 0
g_6_19 0
g_6_20 0
g_6_21 0
g_6_22 0
g_6_23 0
g_6_24 0
g_6_25 0
g_6_26 0
g_7_0 0
g_7_1 0
g_7_2 0
g_7_3 0
g_7_4 0
g_7_5 1
g_7_6 0
g_7_7 0
g_7_8 0
g_7_9 0
g_7_10 0
g_7_11 0
g_7_12 0
g_7_13 0
g_7_14 0
g_7_15 0
g_7_16 0
g_7_17 0
g_7_18 0
g_7_19 0
g_7_20 0
g_7_21 0
g_7_22 0
g_7_23 0
g_7_24 0
g_7_25 0
g_7_26 0
g_8_0 0
g_8_1 0
g_8_2 1
g_8_3 0
g_8_4 0
g_8_5 0
g_8_6 0
g_8_7 0
g_8_8 0
g_8_9 0
g_8_10 0
g_8_11 0
g_8_12 0
g_8_13 0
g_8_14 0
g_8_15 0
g_8_16 0
g_8_17 0
g_8_18 0
g_8_19 0
g_8_20 0
g_8_21 0
g_8_22 0
g_8_23 0
g_8_24 0
g_8_25 0
g_8_26 0
g_9_0 0
g_9_1 0
g_9_2 0
g_9_3 1
g_9_4 0
g_9_5 0
g_9_6 0
g_9_7 1
g_9_8 0
g_9_9 0
g_9_10 0
g_9_11 0
g_9_12 0
g_9_13 0
g_9_14 0
g_9_15 0
g_9_16 0
g_9_17 0
g_9_18 0
g_9_19 0
g_9_20 0
g_9_21 0
g_9_22 0
g_9_23 0
g_9_24 0
g_9_25 0
g_9_26 0
g_10_0 0
g_10_1 0
g_10_2 0
g_10_3 0
g_10_4 0
g_10_5 0
g_10_6 0
g_10_7 1
g_10_8 0
g_10_9 0
g_10_10 0
g_10_11 0
g_10_12 0
g_10_13 0
g_10_14 0
g_10_15 0
g_10_16 0
g_10_17 0
g_10_18 0
g_10_19 0
g_10_20 0
g_10_21 0
g_10_22 0
g_10_23 0
g_10_24 0
g_10_25 0
g_10_26 0
g_11_0 0
g_11_1 0
g_11_2 0
g_11_3 0
g_11_4 1
g_11_5 0
g_11_6 0
g_11_7 1
g_11_8 1
g_11_9 0
g_11_10 0
g_11_11 0
g_11_12 0
g_11_13 0
g_11_14 0
g_11_15 0
g_11_16 0
g_11_17 0
g_11_18 0
g_11_19 0
g_11_20 0
g_11_21 0
g_11_22 0
g_11_23 0
g_11_24 0
g_11_25 0
g_11_26 0
g_12_0 0
g_12_1 1
g_12_2 0
g_12_3 0
g_12_4 0
g_12_5 0
g_12_6 0
g_12_7 0
g_12_8 0
g_12_9 1
g_12_10 0
g_12_11 0
g_12_12 0
g_12_13 0
g_12_14 0
g_12_15 0
g_12_16 0
g_12_17 0
g_12_18 0
g_12_19 0
g_12_20 0
g_12_21 0
g_12_22 0
g_12_23 0
g_12_24 0
g_12_25 0
g_12_26 0
g_13_0 0
g_13_1 1
g_13_2 0
g_13_3 1
g_13_4 0
g_13_5 0
g_13_6 0
g_13_7 0
g_13_8 0
g_13_9 0
g_13_10 0
g_13_11 0
g_13_12 1
g_13_13 0
g_13_14 0
g_13_15 0
g_13_16 0
g_13_17 0
g_13_18 0
g_13_19 0
g_13_20 0
g_13_21 0
g_13_22 0
g_13_23 0
g_13_24 0
g_13_25 0
g_13_26 0
g_14_0 0
g_14_1 0
g_14_2 0
g_14_3 0
g_14_4 0
g_14_5 1
g_14_6 0
g_14_7 0
g_14_8 0
g_14_9 0
g_14_10 0
g_14_11 0
g_14_12 0
g_14_13 0
g_14_14 0
g_14_15 0
g_14_16 0
g_14_17 0
g_14_18 0
g_14_19 0
g_14_20 0
g_14_21 0
g_14_22 0
g_14_23 0
g_14_24 0
g_14_25 0
g_14_26 0
g_15_0 0
g_15_1 0
g_15_2 0
g_15_3 0
g_15_4 0
g_15_5 0
g_15_6 0
g_15_7 0
g_15_8 0
g_15_9 0
g_15_10 0
g_15_11 0
g_15_12 0
g_15_13 0
g_15_14 1
g_15_15 0
g_15_16 0
g_15_17 0
g_15_18 0
g_15_19 0
g_15_20 0
g_15_21 0
g_15_22 0
g_15_23 0
g_15_24 0
g_15_25 0
g_15_26 0
g_16_0 0
g_16_1 0
g_16_2 0
g_16_3 0
g_16_4 1
g_16_5 0
g_16_6 0
g_16_7 0
g_16_8 1
g_16_9 0
g_16_10 1
g_16_11 0
g_16_12 0
g_16_13 0
g_16_14 1
g_16_15 1
g_16_16 0
g_16_17 0
g_16_18 0
g_16_19 0
g_16_20 0
g_16_21 0
g_16_22 0
g_16_23 0
g_16_24 0
g_16_25 0
g_16_26 0
g_17_0 0
g_17_1 0
g_17_2 1
g_17_3 1
g_17_4 0
g_17_5 0
g_17_6 0
g_17_7 0
g_17_8 0
g_17_9 0
g_17_10 0
g_17_11 0
g_17_12 0
g_17_13 0
g_17_14 0
g_17_15 1
g_17_16 0
g_17_17 0
g_17_18 0
g_17_19 0
g_17_20 0
g_17_21 0
g_17_22 0
g_17_23 0
g_17_24 0
g_17_25 0
g_17_26 0
g_18_0 0
g_18_1 0
g_18_2 1
g_18_3 1
g_18_4 0
g_18_5 0
g_18_6 0
g_18_7 0
g_18_8 0
g_18_9 0
g_18_10 0
g_18_11 0
g_18_12 0
g_18_13 0
g_18_14 0
g_18_15 1
g_18_16 0
g_18_17 0
g_18_18 0
g_18_19 0
g_18_20 0
g_18_21 0
g_18_22 0
g_18_23 0
g_18_24 0
g_18_25 0
g_18_26 0
g_19_0 0
g_19_1 0
g_19_2 0
g_19_3 0
g_19_4 0
g_19_5 0
g_19_6 0
g_19_7 0
g_19_8 0
g_19_9 0
g_19_10 0
g_19_11 0
g_19_12 0
g_19_13 0
g_19_14 1
g_19_15 0
g_19_16 0
g_19_17 0
g_19_18 0
g_19_19 0
g_19_20 0
g_19_21 0
g_19_22 0
g_19_23 0
g_19_24 0
g_19_25 0
g_19_26 0
g_20_0 0
g_20_1 0
g_20_2 0
g_20_3 0
g_20_4 0
g_20_5 0
g_20_6 1
g_20_7 1
g_20_8 0
g_20_9 0
g_20_10 0
g_20_11 0
g_20_12 0
g_20_13 0
g_20_14 0
g_20_15 0
g_20_16 0
g_20_17 0
g_20_18 0
g_20_19 1
g_20_20 0
g_20_21 0
g_20_22 0
g_20_23 0
g_20_24 0
g_20_25 0
g_20_26 0
g_21_0 0
g_21_1 0
g_21_2 1
g_21_3 0
g_21_4 0
g_21_5 0
g_21_6 0
g_21_7 0
g_21_8 0
g_21_9 0
g_21_10 0
g_21_11 0
g_21_12 0
g_21_13 0
g_21_14 0
g_21_15 0
g_21_16 0
g_21_17 0
g_21_18 0
g_21_19 0
g_21_20 0
g_21_21 0
g_21_22 0
g_21_23 0
g_21_24 0
g_21_25 0
g_21_26 0
g_22_0 0
g_22_1 1
g_22_2 0
g_22_3 0
g_22_4 0
g_22_5 0
g_22_6 0
g_22_7 1
g_22_8 0
g_22_9 0
g_22_10 0
g_22_11 0
g_22_12 0
g_22_13 0
g_22_14 0
g_22_15 0
g_22_16 0
g_22_17 0
g_22_18 0
g_22_19 0
g_22_20 0
g_22_21 0
g_22_22 0
g_22_23 0
g_22_24 0
g_22_25 0
g_22_26 0
g_23_0 0
g_23_1 0
g_23_2 0
g_23_3 0
g_23_4 0
g_23_5 0
g_23_6 1
g_23_7 0
g_23_8 0
g_23_9 0
g_23_10 0
g_23_11 0
g_23_12 0
g_23_13 0
g_23_14 0
g_23_15 0
g_23_16 0
g_23_17 0
g_23_18 0
g_23_19 0
g_23_20 0
g_23_21 0
g_23_22 1
g_23_23 0
g_23_24 0
g_23_25 0
g_23_26 0
g_24_0 0
g_24_1 0
g_24_2 0
g_24_3 0
g_24_4 1
g_24_5 0
g_24_6 0
g_24_7 0
g_24_8 1
g_24_9 0
g_24_10 0
g_24_11 0
g_24_12 0
g_24_13 0
g_24_14 0
g_24_15 0
g_24_16 0
g_24_17 0
g_24_18 0
g_24_19 0
g_24_20 0
g_24_21 0
g_24_22 0
g_24_23 1
g_24_24 0
g_24_25 0
g_24_26 0
g_25_0 0
g_25_1 0
g_25_2 0
g_25_3 0
g_25_4 0
g_25_5 0
g_25_6 0
g_25_7 1
g_25_8 0
g_25_9 0
g_25_10 0
g_25_11 0
g_25_12 0
g_25_13 0
g_25_14 0
g_25_15 0
g_25_16 0
g_25_17 0
g_25_18 0
g_25_19 0
g_25_20 0
g_25_21 0
g_25_22 0
g_25_23 0
g_25_24 0
g_25_25 0
g_25_26 0
g_26_0 0
g_26_1 0
g_26_2 0
g_26_3 1
g_26_4 0
g_26_5 0
g_26_6 0
g_26_7 0
g_26_8 0
g_26_9 0
g_26_10 0
g_26_11 0
g_26_12 1
g_26_13 0
g_26_14 0
g_26_15 0
g_26_16 0
g_26_17 0
g_26_18 0
g_26_19 0
g_26_20 0
g_26_21 0
g_26_22 0
g_26_23 0
g_26_24 0
g_26_25 0
g_26_26 0
T_0 -0.0372821338973921
T_1 -5.2977935112807018e-02
T_2 0.411217506457362
T_3 4.4869247140587731e-01
T_4 -5.0810173680743276e-01
T_5 -6.8472470796804430e-01
T_6 -0.507118594920513
T_7 -3.6153451739281195e-02
T_8 9.4543266608575038e-01
T_9 1.9638384644480311e-03
T_10 -7.3818407740876069e-01
T_11 -1.0578100094146237e-01
T_12 -0.649643606786185
T_13 6.1028867102621120e-02
T_14 -6.1104757175115765e-02
T_15 1.4997650487799774e-02
T_16 4.0322448961325108e-01
T_17 -6.6282526518861573e-01
T_18 -6.5429301820165620e-01
T_19 4.8121518472393632e-01
T_20 -6.9061537219113234e-02
T_21 4.9279215493859851e-01
T_22 -3.0070798026713419e-03
T_23 -6.4256207949317456e-01
T_24 0.324192700937715
T_25 -3.7623425136203537e-02
T_26 -6.9283332006679643e-01
